; Benchmark for LTL-sketching problem
(set-logic QF_UF)
(set-info :status unknown)
(declare-fun z_0_0_0 () Bool)
(declare-fun z_0_1_0 () Bool)
(declare-fun z_0_2_0 () Bool)
(declare-fun z_0_3_0 () Bool)
(declare-fun z_0_4_0 () Bool)
(declare-fun z_0_5_0 () Bool)
(declare-fun z_0_6_0 () Bool)
(declare-fun z_0_7_0 () Bool)
(declare-fun z_0_8_0 () Bool)
(declare-fun z_0_9_0 () Bool)
(declare-fun z_0_10_0 () Bool)
(declare-fun z_0_11_0 () Bool)
(declare-fun z_0_12_0 () Bool)
(declare-fun z_0_13_0 () Bool)
(declare-fun z_0_14_0 () Bool)
(declare-fun z_0_15_0 () Bool)
(declare-fun z_0_16_0 () Bool)
(declare-fun z_0_17_0 () Bool)
(declare-fun z_0_18_0 () Bool)
(declare-fun z_0_19_0 () Bool)
(declare-fun z_0_0_1 () Bool)
(declare-fun z_2_0_0 () Bool)
(declare-fun z_0_0_2 () Bool)
(declare-fun z_2_0_1 () Bool)
(declare-fun z_0_0_3 () Bool)
(declare-fun z_2_0_2 () Bool)
(declare-fun z_0_0_4 () Bool)
(declare-fun z_2_0_3 () Bool)
(declare-fun z_0_0_5 () Bool)
(declare-fun z_2_0_4 () Bool)
(declare-fun z_0_0_6 () Bool)
(declare-fun z_2_0_5 () Bool)
(declare-fun z_0_0_7 () Bool)
(declare-fun z_2_0_6 () Bool)
(declare-fun z_0_0_8 () Bool)
(declare-fun z_2_0_7 () Bool)
(declare-fun z_0_0_9 () Bool)
(declare-fun z_2_0_8 () Bool)
(declare-fun z_0_0_10 () Bool)
(declare-fun z_2_0_9 () Bool)
(declare-fun z_0_0_11 () Bool)
(declare-fun z_2_0_10 () Bool)
(declare-fun z_0_0_12 () Bool)
(declare-fun z_2_0_11 () Bool)
(declare-fun z_0_0_13 () Bool)
(declare-fun z_2_0_12 () Bool)
(declare-fun z_2_0_13 () Bool)
(declare-fun z_0_1_1 () Bool)
(declare-fun z_2_1_0 () Bool)
(declare-fun z_0_1_2 () Bool)
(declare-fun z_2_1_1 () Bool)
(declare-fun z_0_1_3 () Bool)
(declare-fun z_2_1_2 () Bool)
(declare-fun z_0_1_4 () Bool)
(declare-fun z_2_1_3 () Bool)
(declare-fun z_0_1_5 () Bool)
(declare-fun z_2_1_4 () Bool)
(declare-fun z_0_1_6 () Bool)
(declare-fun z_2_1_5 () Bool)
(declare-fun z_0_1_7 () Bool)
(declare-fun z_2_1_6 () Bool)
(declare-fun z_0_1_8 () Bool)
(declare-fun z_2_1_7 () Bool)
(declare-fun z_0_1_9 () Bool)
(declare-fun z_2_1_8 () Bool)
(declare-fun z_2_1_9 () Bool)
(declare-fun z_0_2_1 () Bool)
(declare-fun z_2_2_0 () Bool)
(declare-fun z_0_2_2 () Bool)
(declare-fun z_2_2_1 () Bool)
(declare-fun z_0_2_3 () Bool)
(declare-fun z_2_2_2 () Bool)
(declare-fun z_0_2_4 () Bool)
(declare-fun z_2_2_3 () Bool)
(declare-fun z_0_2_5 () Bool)
(declare-fun z_2_2_4 () Bool)
(declare-fun z_0_2_6 () Bool)
(declare-fun z_2_2_5 () Bool)
(declare-fun z_0_2_7 () Bool)
(declare-fun z_2_2_6 () Bool)
(declare-fun z_0_2_8 () Bool)
(declare-fun z_2_2_7 () Bool)
(declare-fun z_0_2_9 () Bool)
(declare-fun z_2_2_8 () Bool)
(declare-fun z_0_2_10 () Bool)
(declare-fun z_2_2_9 () Bool)
(declare-fun z_0_2_11 () Bool)
(declare-fun z_2_2_10 () Bool)
(declare-fun z_2_2_11 () Bool)
(declare-fun z_0_3_1 () Bool)
(declare-fun z_2_3_0 () Bool)
(declare-fun z_0_3_2 () Bool)
(declare-fun z_2_3_1 () Bool)
(declare-fun z_0_3_3 () Bool)
(declare-fun z_2_3_2 () Bool)
(declare-fun z_0_3_4 () Bool)
(declare-fun z_2_3_3 () Bool)
(declare-fun z_0_3_5 () Bool)
(declare-fun z_2_3_4 () Bool)
(declare-fun z_0_3_6 () Bool)
(declare-fun z_2_3_5 () Bool)
(declare-fun z_0_3_7 () Bool)
(declare-fun z_2_3_6 () Bool)
(declare-fun z_0_3_8 () Bool)
(declare-fun z_2_3_7 () Bool)
(declare-fun z_0_3_9 () Bool)
(declare-fun z_2_3_8 () Bool)
(declare-fun z_0_3_10 () Bool)
(declare-fun z_2_3_9 () Bool)
(declare-fun z_0_3_11 () Bool)
(declare-fun z_2_3_10 () Bool)
(declare-fun z_0_3_12 () Bool)
(declare-fun z_2_3_11 () Bool)
(declare-fun z_0_3_13 () Bool)
(declare-fun z_2_3_12 () Bool)
(declare-fun z_2_3_13 () Bool)
(declare-fun z_0_4_1 () Bool)
(declare-fun z_2_4_0 () Bool)
(declare-fun z_0_4_2 () Bool)
(declare-fun z_2_4_1 () Bool)
(declare-fun z_0_4_3 () Bool)
(declare-fun z_2_4_2 () Bool)
(declare-fun z_0_4_4 () Bool)
(declare-fun z_2_4_3 () Bool)
(declare-fun z_0_4_5 () Bool)
(declare-fun z_2_4_4 () Bool)
(declare-fun z_0_4_6 () Bool)
(declare-fun z_2_4_5 () Bool)
(declare-fun z_0_4_7 () Bool)
(declare-fun z_2_4_6 () Bool)
(declare-fun z_0_4_8 () Bool)
(declare-fun z_2_4_7 () Bool)
(declare-fun z_0_4_9 () Bool)
(declare-fun z_2_4_8 () Bool)
(declare-fun z_0_4_10 () Bool)
(declare-fun z_2_4_9 () Bool)
(declare-fun z_2_4_10 () Bool)
(declare-fun z_0_5_1 () Bool)
(declare-fun z_2_5_0 () Bool)
(declare-fun z_0_5_2 () Bool)
(declare-fun z_2_5_1 () Bool)
(declare-fun z_0_5_3 () Bool)
(declare-fun z_2_5_2 () Bool)
(declare-fun z_0_5_4 () Bool)
(declare-fun z_2_5_3 () Bool)
(declare-fun z_0_5_5 () Bool)
(declare-fun z_2_5_4 () Bool)
(declare-fun z_0_5_6 () Bool)
(declare-fun z_2_5_5 () Bool)
(declare-fun z_0_5_7 () Bool)
(declare-fun z_2_5_6 () Bool)
(declare-fun z_0_5_8 () Bool)
(declare-fun z_2_5_7 () Bool)
(declare-fun z_0_5_9 () Bool)
(declare-fun z_2_5_8 () Bool)
(declare-fun z_0_5_10 () Bool)
(declare-fun z_2_5_9 () Bool)
(declare-fun z_2_5_10 () Bool)
(declare-fun z_0_6_1 () Bool)
(declare-fun z_2_6_0 () Bool)
(declare-fun z_0_6_2 () Bool)
(declare-fun z_2_6_1 () Bool)
(declare-fun z_0_6_3 () Bool)
(declare-fun z_2_6_2 () Bool)
(declare-fun z_0_6_4 () Bool)
(declare-fun z_2_6_3 () Bool)
(declare-fun z_0_6_5 () Bool)
(declare-fun z_2_6_4 () Bool)
(declare-fun z_0_6_6 () Bool)
(declare-fun z_2_6_5 () Bool)
(declare-fun z_0_6_7 () Bool)
(declare-fun z_2_6_6 () Bool)
(declare-fun z_0_6_8 () Bool)
(declare-fun z_2_6_7 () Bool)
(declare-fun z_0_6_9 () Bool)
(declare-fun z_2_6_8 () Bool)
(declare-fun z_0_6_10 () Bool)
(declare-fun z_2_6_9 () Bool)
(declare-fun z_0_6_11 () Bool)
(declare-fun z_2_6_10 () Bool)
(declare-fun z_0_6_12 () Bool)
(declare-fun z_2_6_11 () Bool)
(declare-fun z_0_6_13 () Bool)
(declare-fun z_2_6_12 () Bool)
(declare-fun z_0_6_14 () Bool)
(declare-fun z_2_6_13 () Bool)
(declare-fun z_2_6_14 () Bool)
(declare-fun z_0_7_1 () Bool)
(declare-fun z_2_7_0 () Bool)
(declare-fun z_0_7_2 () Bool)
(declare-fun z_2_7_1 () Bool)
(declare-fun z_0_7_3 () Bool)
(declare-fun z_2_7_2 () Bool)
(declare-fun z_0_7_4 () Bool)
(declare-fun z_2_7_3 () Bool)
(declare-fun z_0_7_5 () Bool)
(declare-fun z_2_7_4 () Bool)
(declare-fun z_0_7_6 () Bool)
(declare-fun z_2_7_5 () Bool)
(declare-fun z_0_7_7 () Bool)
(declare-fun z_2_7_6 () Bool)
(declare-fun z_0_7_8 () Bool)
(declare-fun z_2_7_7 () Bool)
(declare-fun z_0_7_9 () Bool)
(declare-fun z_2_7_8 () Bool)
(declare-fun z_0_7_10 () Bool)
(declare-fun z_2_7_9 () Bool)
(declare-fun z_2_7_10 () Bool)
(declare-fun z_0_8_1 () Bool)
(declare-fun z_2_8_0 () Bool)
(declare-fun z_0_8_2 () Bool)
(declare-fun z_2_8_1 () Bool)
(declare-fun z_0_8_3 () Bool)
(declare-fun z_2_8_2 () Bool)
(declare-fun z_0_8_4 () Bool)
(declare-fun z_2_8_3 () Bool)
(declare-fun z_0_8_5 () Bool)
(declare-fun z_2_8_4 () Bool)
(declare-fun z_0_8_6 () Bool)
(declare-fun z_2_8_5 () Bool)
(declare-fun z_0_8_7 () Bool)
(declare-fun z_2_8_6 () Bool)
(declare-fun z_0_8_8 () Bool)
(declare-fun z_2_8_7 () Bool)
(declare-fun z_0_8_9 () Bool)
(declare-fun z_2_8_8 () Bool)
(declare-fun z_0_8_10 () Bool)
(declare-fun z_2_8_9 () Bool)
(declare-fun z_0_8_11 () Bool)
(declare-fun z_2_8_10 () Bool)
(declare-fun z_0_8_12 () Bool)
(declare-fun z_2_8_11 () Bool)
(declare-fun z_0_8_13 () Bool)
(declare-fun z_2_8_12 () Bool)
(declare-fun z_2_8_13 () Bool)
(declare-fun z_0_9_1 () Bool)
(declare-fun z_2_9_0 () Bool)
(declare-fun z_0_9_2 () Bool)
(declare-fun z_2_9_1 () Bool)
(declare-fun z_0_9_3 () Bool)
(declare-fun z_2_9_2 () Bool)
(declare-fun z_0_9_4 () Bool)
(declare-fun z_2_9_3 () Bool)
(declare-fun z_0_9_5 () Bool)
(declare-fun z_2_9_4 () Bool)
(declare-fun z_0_9_6 () Bool)
(declare-fun z_2_9_5 () Bool)
(declare-fun z_0_9_7 () Bool)
(declare-fun z_2_9_6 () Bool)
(declare-fun z_0_9_8 () Bool)
(declare-fun z_2_9_7 () Bool)
(declare-fun z_0_9_9 () Bool)
(declare-fun z_2_9_8 () Bool)
(declare-fun z_0_9_10 () Bool)
(declare-fun z_2_9_9 () Bool)
(declare-fun z_0_9_11 () Bool)
(declare-fun z_2_9_10 () Bool)
(declare-fun z_2_9_11 () Bool)
(declare-fun z_2_10_0 () Bool)
(declare-fun z_2_11_0 () Bool)
(declare-fun z_2_12_0 () Bool)
(declare-fun z_2_13_0 () Bool)
(declare-fun z_2_14_0 () Bool)
(declare-fun z_2_15_0 () Bool)
(declare-fun z_2_16_0 () Bool)
(declare-fun z_2_17_0 () Bool)
(declare-fun z_2_18_0 () Bool)
(declare-fun z_2_19_0 () Bool)
(declare-fun x_2_p () Bool)
(declare-fun x_2_-> () Bool)
(declare-fun x_2_U () Bool)
(declare-fun x_2_v () Bool)
(declare-fun x_2_& () Bool)
(declare-fun x_2_X () Bool)
(declare-fun x_2_! () Bool)
(declare-fun x_2_F () Bool)
(declare-fun x_2_G () Bool)
(assert
 (= z_0_0_0 true))
(assert
 (= z_0_1_0 true))
(assert
 (= z_0_2_0 true))
(assert
 (= z_0_3_0 true))
(assert
 (= z_0_4_0 true))
(assert
 (= z_0_5_0 true))
(assert
 (= z_0_6_0 true))
(assert
 (= z_0_7_0 true))
(assert
 (= z_0_8_0 true))
(assert
 (= z_0_9_0 true))
(assert
 (= z_0_10_0 false))
(assert
 (= z_0_11_0 false))
(assert
 (= z_0_12_0 false))
(assert
 (= z_0_13_0 false))
(assert
 (= z_0_14_0 false))
(assert
 (= z_0_15_0 false))
(assert
 (= z_0_16_0 false))
(assert
 (= z_0_17_0 false))
(assert
 (= z_0_18_0 false))
(assert
 (= z_0_19_0 false))
(assert
 (= z_0_0_0 (or z_2_0_0 z_0_0_1)))
(assert
 (= z_0_0_1 (or z_2_0_1 z_0_0_2)))
(assert
 (= z_0_0_2 (or z_2_0_2 z_0_0_3)))
(assert
 (= z_0_0_3 (or z_2_0_3 z_0_0_4)))
(assert
 (= z_0_0_4 (or z_2_0_4 z_0_0_5)))
(assert
 (= z_0_0_5 (or z_2_0_5 z_0_0_6)))
(assert
 (= z_0_0_6 (or z_2_0_6 z_0_0_7)))
(assert
 (= z_0_0_7 (or z_2_0_7 z_0_0_8)))
(assert
 (= z_0_0_8 (or z_2_0_8 z_0_0_9)))
(assert
 (= z_0_0_9 (or z_2_0_9 z_0_0_10)))
(assert
 (= z_0_0_10 (or z_2_0_10 z_0_0_11)))
(assert
 (= z_0_0_11 (or z_2_0_11 z_0_0_12)))
(assert
 (= z_0_0_12 (or z_2_0_12 z_0_0_13)))
(assert
 (let (($x2069 (or z_2_0_6 z_2_0_7 z_2_0_8 z_2_0_9 z_2_0_10 z_2_0_11 z_2_0_12 z_2_0_13)))
 (= z_0_0_13 $x2069)))
(assert
 (= z_0_1_0 (or z_2_1_0 z_0_1_1)))
(assert
 (= z_0_1_1 (or z_2_1_1 z_0_1_2)))
(assert
 (= z_0_1_2 (or z_2_1_2 z_0_1_3)))
(assert
 (= z_0_1_3 (or z_2_1_3 z_0_1_4)))
(assert
 (= z_0_1_4 (or z_2_1_4 z_0_1_5)))
(assert
 (= z_0_1_5 (or z_2_1_5 z_0_1_6)))
(assert
 (= z_0_1_6 (or z_2_1_6 z_0_1_7)))
(assert
 (= z_0_1_7 (or z_2_1_7 z_0_1_8)))
(assert
 (= z_0_1_8 (or z_2_1_8 z_0_1_9)))
(assert
 (= z_0_1_9 (or z_2_1_4 z_2_1_5 z_2_1_6 z_2_1_7 z_2_1_8 z_2_1_9)))
(assert
 (= z_0_2_0 (or z_2_2_0 z_0_2_1)))
(assert
 (= z_0_2_1 (or z_2_2_1 z_0_2_2)))
(assert
 (= z_0_2_2 (or z_2_2_2 z_0_2_3)))
(assert
 (= z_0_2_3 (or z_2_2_3 z_0_2_4)))
(assert
 (= z_0_2_4 (or z_2_2_4 z_0_2_5)))
(assert
 (= z_0_2_5 (or z_2_2_5 z_0_2_6)))
(assert
 (= z_0_2_6 (or z_2_2_6 z_0_2_7)))
(assert
 (= z_0_2_7 (or z_2_2_7 z_0_2_8)))
(assert
 (= z_0_2_8 (or z_2_2_8 z_0_2_9)))
(assert
 (= z_0_2_9 (or z_2_2_9 z_0_2_10)))
(assert
 (= z_0_2_10 (or z_2_2_10 z_0_2_11)))
(assert
 (let (($x2175 (or z_2_2_4 z_2_2_5 z_2_2_6 z_2_2_7 z_2_2_8 z_2_2_9 z_2_2_10 z_2_2_11)))
 (= z_0_2_11 $x2175)))
(assert
 (= z_0_3_0 (or z_2_3_0 z_0_3_1)))
(assert
 (= z_0_3_1 (or z_2_3_1 z_0_3_2)))
(assert
 (= z_0_3_2 (or z_2_3_2 z_0_3_3)))
(assert
 (= z_0_3_3 (or z_2_3_3 z_0_3_4)))
(assert
 (= z_0_3_4 (or z_2_3_4 z_0_3_5)))
(assert
 (= z_0_3_5 (or z_2_3_5 z_0_3_6)))
(assert
 (= z_0_3_6 (or z_2_3_6 z_0_3_7)))
(assert
 (= z_0_3_7 (or z_2_3_7 z_0_3_8)))
(assert
 (= z_0_3_8 (or z_2_3_8 z_0_3_9)))
(assert
 (= z_0_3_9 (or z_2_3_9 z_0_3_10)))
(assert
 (= z_0_3_10 (or z_2_3_10 z_0_3_11)))
(assert
 (= z_0_3_11 (or z_2_3_11 z_0_3_12)))
(assert
 (= z_0_3_12 (or z_2_3_12 z_0_3_13)))
(assert
 (let (($x2243 (or z_2_3_7 z_2_3_8 z_2_3_9 z_2_3_10 z_2_3_11 z_2_3_12 z_2_3_13)))
 (= z_0_3_13 $x2243)))
(assert
 (= z_0_4_0 (or z_2_4_0 z_0_4_1)))
(assert
 (= z_0_4_1 (or z_2_4_1 z_0_4_2)))
(assert
 (= z_0_4_2 (or z_2_4_2 z_0_4_3)))
(assert
 (= z_0_4_3 (or z_2_4_3 z_0_4_4)))
(assert
 (= z_0_4_4 (or z_2_4_4 z_0_4_5)))
(assert
 (= z_0_4_5 (or z_2_4_5 z_0_4_6)))
(assert
 (= z_0_4_6 (or z_2_4_6 z_0_4_7)))
(assert
 (= z_0_4_7 (or z_2_4_7 z_0_4_8)))
(assert
 (= z_0_4_8 (or z_2_4_8 z_0_4_9)))
(assert
 (= z_0_4_9 (or z_2_4_9 z_0_4_10)))
(assert
 (let (($x2296 (or z_2_4_4 z_2_4_5 z_2_4_6 z_2_4_7 z_2_4_8 z_2_4_9 z_2_4_10)))
 (= z_0_4_10 $x2296)))
(assert
 (= z_0_5_0 (or z_2_5_0 z_0_5_1)))
(assert
 (= z_0_5_1 (or z_2_5_1 z_0_5_2)))
(assert
 (= z_0_5_2 (or z_2_5_2 z_0_5_3)))
(assert
 (= z_0_5_3 (or z_2_5_3 z_0_5_4)))
(assert
 (= z_0_5_4 (or z_2_5_4 z_0_5_5)))
(assert
 (= z_0_5_5 (or z_2_5_5 z_0_5_6)))
(assert
 (= z_0_5_6 (or z_2_5_6 z_0_5_7)))
(assert
 (= z_0_5_7 (or z_2_5_7 z_0_5_8)))
(assert
 (= z_0_5_8 (or z_2_5_8 z_0_5_9)))
(assert
 (= z_0_5_9 (or z_2_5_9 z_0_5_10)))
(assert
 (= z_0_5_10 (or z_2_5_5 z_2_5_6 z_2_5_7 z_2_5_8 z_2_5_9 z_2_5_10)))
(assert
 (= z_0_6_0 (or z_2_6_0 z_0_6_1)))
(assert
 (= z_0_6_1 (or z_2_6_1 z_0_6_2)))
(assert
 (= z_0_6_2 (or z_2_6_2 z_0_6_3)))
(assert
 (= z_0_6_3 (or z_2_6_3 z_0_6_4)))
(assert
 (= z_0_6_4 (or z_2_6_4 z_0_6_5)))
(assert
 (= z_0_6_5 (or z_2_6_5 z_0_6_6)))
(assert
 (= z_0_6_6 (or z_2_6_6 z_0_6_7)))
(assert
 (= z_0_6_7 (or z_2_6_7 z_0_6_8)))
(assert
 (= z_0_6_8 (or z_2_6_8 z_0_6_9)))
(assert
 (= z_0_6_9 (or z_2_6_9 z_0_6_10)))
(assert
 (= z_0_6_10 (or z_2_6_10 z_0_6_11)))
(assert
 (= z_0_6_11 (or z_2_6_11 z_0_6_12)))
(assert
 (= z_0_6_12 (or z_2_6_12 z_0_6_13)))
(assert
 (= z_0_6_13 (or z_2_6_13 z_0_6_14)))
(assert
 (let (($x2422 (or z_2_6_8 z_2_6_9 z_2_6_10 z_2_6_11 z_2_6_12 z_2_6_13 z_2_6_14)))
 (= z_0_6_14 $x2422)))
(assert
 (= z_0_7_0 (or z_2_7_0 z_0_7_1)))
(assert
 (= z_0_7_1 (or z_2_7_1 z_0_7_2)))
(assert
 (= z_0_7_2 (or z_2_7_2 z_0_7_3)))
(assert
 (= z_0_7_3 (or z_2_7_3 z_0_7_4)))
(assert
 (= z_0_7_4 (or z_2_7_4 z_0_7_5)))
(assert
 (= z_0_7_5 (or z_2_7_5 z_0_7_6)))
(assert
 (= z_0_7_6 (or z_2_7_6 z_0_7_7)))
(assert
 (= z_0_7_7 (or z_2_7_7 z_0_7_8)))
(assert
 (= z_0_7_8 (or z_2_7_8 z_0_7_9)))
(assert
 (= z_0_7_9 (or z_2_7_9 z_0_7_10)))
(assert
 (let (($x2475 (or z_2_7_4 z_2_7_5 z_2_7_6 z_2_7_7 z_2_7_8 z_2_7_9 z_2_7_10)))
 (= z_0_7_10 $x2475)))
(assert
 (= z_0_8_0 (or z_2_8_0 z_0_8_1)))
(assert
 (= z_0_8_1 (or z_2_8_1 z_0_8_2)))
(assert
 (= z_0_8_2 (or z_2_8_2 z_0_8_3)))
(assert
 (= z_0_8_3 (or z_2_8_3 z_0_8_4)))
(assert
 (= z_0_8_4 (or z_2_8_4 z_0_8_5)))
(assert
 (= z_0_8_5 (or z_2_8_5 z_0_8_6)))
(assert
 (= z_0_8_6 (or z_2_8_6 z_0_8_7)))
(assert
 (= z_0_8_7 (or z_2_8_7 z_0_8_8)))
(assert
 (= z_0_8_8 (or z_2_8_8 z_0_8_9)))
(assert
 (= z_0_8_9 (or z_2_8_9 z_0_8_10)))
(assert
 (= z_0_8_10 (or z_2_8_10 z_0_8_11)))
(assert
 (= z_0_8_11 (or z_2_8_11 z_0_8_12)))
(assert
 (= z_0_8_12 (or z_2_8_12 z_0_8_13)))
(assert
 (let (($x2543 (or z_2_8_7 z_2_8_8 z_2_8_9 z_2_8_10 z_2_8_11 z_2_8_12 z_2_8_13)))
 (= z_0_8_13 $x2543)))
(assert
 (= z_0_9_0 (or z_2_9_0 z_0_9_1)))
(assert
 (= z_0_9_1 (or z_2_9_1 z_0_9_2)))
(assert
 (= z_0_9_2 (or z_2_9_2 z_0_9_3)))
(assert
 (= z_0_9_3 (or z_2_9_3 z_0_9_4)))
(assert
 (= z_0_9_4 (or z_2_9_4 z_0_9_5)))
(assert
 (= z_0_9_5 (or z_2_9_5 z_0_9_6)))
(assert
 (= z_0_9_6 (or z_2_9_6 z_0_9_7)))
(assert
 (= z_0_9_7 (or z_2_9_7 z_0_9_8)))
(assert
 (= z_0_9_8 (or z_2_9_8 z_0_9_9)))
(assert
 (= z_0_9_9 (or z_2_9_9 z_0_9_10)))
(assert
 (= z_0_9_10 (or z_2_9_10 z_0_9_11)))
(assert
 (let (($x2601 (or z_2_9_5 z_2_9_6 z_2_9_7 z_2_9_8 z_2_9_9 z_2_9_10 z_2_9_11)))
 (= z_0_9_11 $x2601)))
(assert
 (= z_0_10_0 (or z_2_10_0)))
(assert
 (= z_0_11_0 (or z_2_11_0)))
(assert
 (= z_0_12_0 (or z_2_12_0)))
(assert
 (= z_0_13_0 (or z_2_13_0)))
(assert
 (= z_0_14_0 (or z_2_14_0)))
(assert
 (= z_0_15_0 (or z_2_15_0)))
(assert
 (= z_0_16_0 (or z_2_16_0)))
(assert
 (= z_0_17_0 (or z_2_17_0)))
(assert
 (= z_0_18_0 (or z_2_18_0)))
(assert
 (= z_0_19_0 (or z_2_19_0)))
(assert
 (and true true))
(assert
 (let (($x2663 (not z_2_0_0)))
 (=> x_2_p $x2663)))
(assert
 (let (($x2667 (not z_2_0_1)))
 (=> x_2_p $x2667)))
(assert
 (let (($x2670 (not z_2_0_2)))
 (=> x_2_p $x2670)))
(assert
 (let (($x2673 (not z_2_0_3)))
 (=> x_2_p $x2673)))
(assert
 (let (($x2676 (not z_2_0_4)))
 (=> x_2_p $x2676)))
(assert
 (=> x_2_p z_2_0_5))
(assert
 (=> x_2_p z_2_0_6))
(assert
 (let (($x2683 (not z_2_0_7)))
 (=> x_2_p $x2683)))
(assert
 (let (($x2686 (not z_2_0_8)))
 (=> x_2_p $x2686)))
(assert
 (=> x_2_p z_2_0_9))
(assert
 (=> x_2_p z_2_0_10))
(assert
 (=> x_2_p z_2_0_11))
(assert
 (let (($x2695 (not z_2_0_12)))
 (=> x_2_p $x2695)))
(assert
 (let (($x2698 (not z_2_0_13)))
 (=> x_2_p $x2698)))
(assert
 (=> x_2_p z_2_1_0))
(assert
 (let (($x2703 (not z_2_1_1)))
 (=> x_2_p $x2703)))
(assert
 (let (($x2706 (not z_2_1_2)))
 (=> x_2_p $x2706)))
(assert
 (=> x_2_p z_2_1_3))
(assert
 (let (($x2711 (not z_2_1_4)))
 (=> x_2_p $x2711)))
(assert
 (=> x_2_p z_2_1_5))
(assert
 (=> x_2_p z_2_1_6))
(assert
 (=> x_2_p z_2_1_7))
(assert
 (=> x_2_p z_2_1_8))
(assert
 (let (($x2722 (not z_2_1_9)))
 (=> x_2_p $x2722)))
(assert
 (let (($x2725 (not z_2_2_0)))
 (=> x_2_p $x2725)))
(assert
 (let (($x2728 (not z_2_2_1)))
 (=> x_2_p $x2728)))
(assert
 (let (($x2731 (not z_2_2_2)))
 (=> x_2_p $x2731)))
(assert
 (let (($x2734 (not z_2_2_3)))
 (=> x_2_p $x2734)))
(assert
 (let (($x2737 (not z_2_2_4)))
 (=> x_2_p $x2737)))
(assert
 (=> x_2_p z_2_2_5))
(assert
 (let (($x2742 (not z_2_2_6)))
 (=> x_2_p $x2742)))
(assert
 (let (($x2745 (not z_2_2_7)))
 (=> x_2_p $x2745)))
(assert
 (let (($x2748 (not z_2_2_8)))
 (=> x_2_p $x2748)))
(assert
 (let (($x2751 (not z_2_2_9)))
 (=> x_2_p $x2751)))
(assert
 (=> x_2_p z_2_2_10))
(assert
 (=> x_2_p z_2_2_11))
(assert
 (let (($x2758 (not z_2_3_0)))
 (=> x_2_p $x2758)))
(assert
 (let (($x2761 (not z_2_3_1)))
 (=> x_2_p $x2761)))
(assert
 (=> x_2_p z_2_3_2))
(assert
 (let (($x2766 (not z_2_3_3)))
 (=> x_2_p $x2766)))
(assert
 (let (($x2769 (not z_2_3_4)))
 (=> x_2_p $x2769)))
(assert
 (=> x_2_p z_2_3_5))
(assert
 (let (($x2774 (not z_2_3_6)))
 (=> x_2_p $x2774)))
(assert
 (=> x_2_p z_2_3_7))
(assert
 (let (($x2779 (not z_2_3_8)))
 (=> x_2_p $x2779)))
(assert
 (let (($x2782 (not z_2_3_9)))
 (=> x_2_p $x2782)))
(assert
 (=> x_2_p z_2_3_10))
(assert
 (=> x_2_p z_2_3_11))
(assert
 (=> x_2_p z_2_3_12))
(assert
 (=> x_2_p z_2_3_13))
(assert
 (let (($x2793 (not z_2_4_0)))
 (=> x_2_p $x2793)))
(assert
 (let (($x2796 (not z_2_4_1)))
 (=> x_2_p $x2796)))
(assert
 (let (($x2799 (not z_2_4_2)))
 (=> x_2_p $x2799)))
(assert
 (=> x_2_p z_2_4_3))
(assert
 (let (($x2804 (not z_2_4_4)))
 (=> x_2_p $x2804)))
(assert
 (=> x_2_p z_2_4_5))
(assert
 (=> x_2_p z_2_4_6))
(assert
 (let (($x2811 (not z_2_4_7)))
 (=> x_2_p $x2811)))
(assert
 (=> x_2_p z_2_4_8))
(assert
 (let (($x2816 (not z_2_4_9)))
 (=> x_2_p $x2816)))
(assert
 (let (($x2819 (not z_2_4_10)))
 (=> x_2_p $x2819)))
(assert
 (let (($x2822 (not z_2_5_0)))
 (=> x_2_p $x2822)))
(assert
 (let (($x2825 (not z_2_5_1)))
 (=> x_2_p $x2825)))
(assert
 (let (($x2828 (not z_2_5_2)))
 (=> x_2_p $x2828)))
(assert
 (let (($x2831 (not z_2_5_3)))
 (=> x_2_p $x2831)))
(assert
 (let (($x2834 (not z_2_5_4)))
 (=> x_2_p $x2834)))
(assert
 (=> x_2_p z_2_5_5))
(assert
 (let (($x2839 (not z_2_5_6)))
 (=> x_2_p $x2839)))
(assert
 (let (($x2842 (not z_2_5_7)))
 (=> x_2_p $x2842)))
(assert
 (let (($x2845 (not z_2_5_8)))
 (=> x_2_p $x2845)))
(assert
 (=> x_2_p z_2_5_9))
(assert
 (=> x_2_p z_2_5_10))
(assert
 (=> x_2_p z_2_6_0))
(assert
 (let (($x2854 (not z_2_6_1)))
 (=> x_2_p $x2854)))
(assert
 (let (($x2857 (not z_2_6_2)))
 (=> x_2_p $x2857)))
(assert
 (=> x_2_p z_2_6_3))
(assert
 (let (($x2862 (not z_2_6_4)))
 (=> x_2_p $x2862)))
(assert
 (let (($x2865 (not z_2_6_5)))
 (=> x_2_p $x2865)))
(assert
 (=> x_2_p z_2_6_6))
(assert
 (=> x_2_p z_2_6_7))
(assert
 (let (($x2872 (not z_2_6_8)))
 (=> x_2_p $x2872)))
(assert
 (=> x_2_p z_2_6_9))
(assert
 (let (($x2877 (not z_2_6_10)))
 (=> x_2_p $x2877)))
(assert
 (let (($x2880 (not z_2_6_11)))
 (=> x_2_p $x2880)))
(assert
 (=> x_2_p z_2_6_12))
(assert
 (=> x_2_p z_2_6_13))
(assert
 (let (($x2887 (not z_2_6_14)))
 (=> x_2_p $x2887)))
(assert
 (let (($x2890 (not z_2_7_0)))
 (=> x_2_p $x2890)))
(assert
 (=> x_2_p z_2_7_1))
(assert
 (=> x_2_p z_2_7_2))
(assert
 (let (($x2897 (not z_2_7_3)))
 (=> x_2_p $x2897)))
(assert
 (=> x_2_p z_2_7_4))
(assert
 (=> x_2_p z_2_7_5))
(assert
 (=> x_2_p z_2_7_6))
(assert
 (=> x_2_p z_2_7_7))
(assert
 (let (($x2908 (not z_2_7_8)))
 (=> x_2_p $x2908)))
(assert
 (let (($x2911 (not z_2_7_9)))
 (=> x_2_p $x2911)))
(assert
 (=> x_2_p z_2_7_10))
(assert
 (let (($x2916 (not z_2_8_0)))
 (=> x_2_p $x2916)))
(assert
 (let (($x2919 (not z_2_8_1)))
 (=> x_2_p $x2919)))
(assert
 (let (($x2922 (not z_2_8_2)))
 (=> x_2_p $x2922)))
(assert
 (let (($x2925 (not z_2_8_3)))
 (=> x_2_p $x2925)))
(assert
 (let (($x2928 (not z_2_8_4)))
 (=> x_2_p $x2928)))
(assert
 (=> x_2_p z_2_8_5))
(assert
 (let (($x2933 (not z_2_8_6)))
 (=> x_2_p $x2933)))
(assert
 (=> x_2_p z_2_8_7))
(assert
 (let (($x2938 (not z_2_8_8)))
 (=> x_2_p $x2938)))
(assert
 (=> x_2_p z_2_8_9))
(assert
 (let (($x2943 (not z_2_8_10)))
 (=> x_2_p $x2943)))
(assert
 (let (($x2946 (not z_2_8_11)))
 (=> x_2_p $x2946)))
(assert
 (=> x_2_p z_2_8_12))
(assert
 (=> x_2_p z_2_8_13))
(assert
 (=> x_2_p z_2_9_0))
(assert
 (let (($x2955 (not z_2_9_1)))
 (=> x_2_p $x2955)))
(assert
 (=> x_2_p z_2_9_2))
(assert
 (let (($x2960 (not z_2_9_3)))
 (=> x_2_p $x2960)))
(assert
 (=> x_2_p z_2_9_4))
(assert
 (let (($x2965 (not z_2_9_5)))
 (=> x_2_p $x2965)))
(assert
 (=> x_2_p z_2_9_6))
(assert
 (let (($x2970 (not z_2_9_7)))
 (=> x_2_p $x2970)))
(assert
 (=> x_2_p z_2_9_8))
(assert
 (=> x_2_p z_2_9_9))
(assert
 (=> x_2_p z_2_9_10))
(assert
 (let (($x2979 (not z_2_9_11)))
 (=> x_2_p $x2979)))
(assert
 (let (($x2982 (not z_2_10_0)))
 (=> x_2_p $x2982)))
(assert
 (let (($x2985 (not z_2_11_0)))
 (=> x_2_p $x2985)))
(assert
 (let (($x2988 (not z_2_12_0)))
 (=> x_2_p $x2988)))
(assert
 (let (($x2991 (not z_2_13_0)))
 (=> x_2_p $x2991)))
(assert
 (let (($x2994 (not z_2_14_0)))
 (=> x_2_p $x2994)))
(assert
 (let (($x2997 (not z_2_15_0)))
 (=> x_2_p $x2997)))
(assert
 (let (($x3000 (not z_2_16_0)))
 (=> x_2_p $x3000)))
(assert
 (let (($x3003 (not z_2_17_0)))
 (=> x_2_p $x3003)))
(assert
 (let (($x3006 (not z_2_18_0)))
 (=> x_2_p $x3006)))
(assert
 (let (($x3009 (not z_2_19_0)))
 (=> x_2_p $x3009)))
(assert
 (or x_2_p))
(assert
 (let (($x2661 (not x_2_->)))
 (let (($x2659 (not x_2_U)))
 (let (($x2657 (not x_2_v)))
 (let (($x2655 (not x_2_&)))
 (let (($x2653 (not x_2_X)))
 (let (($x2651 (not x_2_!)))
 (let (($x2649 (not x_2_F)))
 (let (($x2647 (not x_2_G)))
 (and $x2647 $x2649 $x2651 $x2653 $x2655 $x2657 $x2659 $x2661))))))))))
(check-sat)

